% Generated FlatZinc statistics:
%%%mzn-stat: paths=0
%%%mzn-stat: flatBoolVars=3920
%%%mzn-stat: flatIntVars=4080
%%%mzn-stat: flatIntConstraints=7913
%%%mzn-stat: evaluatedReifiedConstraints=3920
%%%mzn-stat: method="maximize"
%%%mzn-stat: flatTime=0.314314
%%%mzn-stat-end

Team = [1, 2, 3, 4, 5, 6, 7, 8, 9, 10, 11, 12, 13, 14, 15, 16, 17, 18, 19, 20, 21, 22, 23, 24, 25, 26, 27, 28, 29, 30, 31, 5, 22, 24, 31, 28, 7, 23, 21, 30, 15, 16, 25, 27, 29, 14, 6, 19, 20, 26, 11, 2, 8, 1, 10, 4, 12, 18, 3, 17, 9, 13, 26, 28, 16, 18, 27, 5, 23, 6, 9, 24, 13, 7, 30, 2, 25, 19, 21, 11, 29, 20, 17, 3, 14, 15, 8, 10, 12, 31, 4, 22, 1, 18, 5, 29, 12, 2, 27, 31, 25, 19, 17, 7, 22, 14, 13, 10, 11, 20, 9, 15, 21, 26, 3, 16, 30, 24, 1, 28, 4, 23, 8, 6, 26, 20, 2, 17, 13, 29, 8, 25, 30, 18, 6, 12, 3, 10, 9, 28, 21, 23, 11, 16, 4, 31, 5, 15, 22, 27, 1, 14, 24, 19, 7];
objective = 66664;
----------
==========
%%%mzn-stat: objective=66664
%%%mzn-stat: objectiveBound=66664
%%%mzn-stat: boolVariables=5165
%%%mzn-stat: failures=91
%%%mzn-stat: propagations=893676
%%%mzn-stat: solveTime=8.51628
%%%mzn-stat: nSolutions=1
%%%mzn-stat-end
